
Gurobi 9.5.1 (linux64) logging started Thu 09 Jun 2022 07:07:01 PM MST

Set parameter LogFile to value "/home/local/ASUAD/kmajd1/NNRepLayer_v2/demos/walking_example/dynamic_constraint/repair_net/logs/opt_log_6_9_2022_19_6_46.log"
Gurobi Optimizer version 9.5.1 build v9.5.1rc2 (linux64)
Thread count: 48 physical cores, 96 logical processors, using up to 32 threads
Optimize a model with 876 rows, 304 columns and 2555 nonzeros
Model fingerprint: 0xa5011327
Model has 271 quadratic objective terms
Coefficient statistics:
  Matrix range     [7e-04, 2e+01]
  Objective range  [1e-02, 1e+00]
  QObjective range [7e-02, 2e+00]
  Bounds range     [1e+01, 5e+01]
  RHS range        [7e-04, 2e+01]
Presolve removed 559 rows and 10 columns
Presolve time: 0.00s
Presolved: 317 rows, 294 columns, 1984 nonzeros
Presolved model has 271 quadratic objective terms
Ordering time: 0.00s

Barrier statistics:
 Dense cols : 14
 AA' NZ     : 2.434e+03
 Factor NZ  : 3.387e+03
 Factor Ops : 5.771e+04 (less than 1 second per iteration)
 Threads    : 1

                  Objective                Residual
Iter       Primal          Dual         Primal    Dual     Compl     Time
   0   4.03000570e+07 -4.08305249e+07  4.49e+03 4.47e+02  9.45e+05     0s
   1   1.15378366e+07 -1.22065047e+07  2.34e+03 2.33e+02  5.01e+05     0s
   2   1.33578127e+05 -1.51676471e+06  2.56e+02 2.55e+01  7.57e+04     0s
   3   1.53199769e+02 -1.12417305e+06  3.73e+00 3.72e-01  2.79e+03     0s
   4   1.07034487e+02 -6.62662138e+05  1.58e+00 1.57e-01  1.36e+03     0s
   5   9.38066640e+01 -3.44640005e+05  5.03e-01 5.01e-02  6.19e+02     0s
   6   8.79726187e+01 -1.77240027e+05  2.30e-01 2.29e-02  3.06e+02     0s
   7   9.21506225e+01 -1.35905966e+05  1.41e-01 1.40e-02  2.38e+02     0s
   8   9.36638487e+01 -9.17838090e+04  8.97e-02 8.95e-03  1.66e+02     0s
   9   9.55933311e+01 -7.48595466e+04  7.78e-02 7.76e-03  1.53e+02     0s
  10   9.56894793e+01 -6.67972174e+04  7.37e-02 7.35e-03  1.44e+02     0s
  11   9.63496660e+01 -4.88902359e+04  6.64e-02 6.62e-03  1.28e+02     0s
  12   9.73260001e+01 -3.75558492e+04  6.44e-02 6.42e-03  1.24e+02     0s
  13   1.00350045e+02  2.23925347e+04  6.21e-02 6.19e-03  1.21e+02     0s
  14   1.00338777e+02  1.66011648e+05  6.13e-02 6.11e-03  1.17e+02     0s
  15   1.00322971e+02  1.05971114e+06  6.12e-02 6.10e-03  1.18e+02     0s
  16   1.00338611e+02  7.17579869e+06  6.10e-02 6.08e-03  1.21e+02     0s
  17   1.00649995e+09 -1.00915355e+09  2.24e+04 2.30e+03  2.36e+07     0s
  18   1.01177052e+05 -1.19972626e+05  2.23e+02 3.87e+01  2.28e+03     0s
  19   1.60760158e+02 -4.65612506e+01  5.14e+00 1.02e+00  1.24e+00     0s
  20   8.11589951e+01  4.34742972e+01  2.26e+00 4.52e-01  3.57e-01     0s
  21   6.40282903e+01  5.68256551e+01  6.62e-01 1.29e-01  9.65e-02     0s
  22   6.70674325e+01  6.05624754e+01  2.05e-01 4.00e-02  4.01e-02     0s
  23   6.66481481e+01  6.42015519e+01  1.49e-01 2.90e-02  3.42e-02     0s
  24   6.76934944e+01  7.22411827e+01  1.20e-01 2.30e-02  3.01e-02     0s
  25   7.71982759e+01  8.65306636e+01  7.86e-02 1.47e-02  3.35e-02     0s
  26   7.87678694e+01  9.62072004e+01  6.76e-02 1.24e-02  3.62e-02     0s
  27   7.90488218e+01  1.26553599e+02  6.80e-02 1.22e-02  5.45e-02     0s
  28   7.94077270e+01  1.39297392e+02  6.70e-02 1.18e-02  6.06e-02     0s
  29   8.03685828e+01  2.72730076e+02  6.59e-02 9.50e-03  1.54e-01     0s
  30   9.13442990e+01  3.38745361e+02  6.52e-02 5.82e-03  3.08e-01     0s
  31   1.47167178e+02  7.14824584e+02  6.67e-02 5.42e-03  1.46e+00     0s
  32   1.74080519e+02  8.23487451e+02  6.65e-02 5.41e-03  2.81e+00     0s
  33   1.16581800e+02  1.66256984e+03  6.59e-02 5.36e-03  1.27e+01     0s
  34   1.15968302e+02  2.47742966e+04  7.57e-02 3.72e-03  1.31e+03     0s
  35*  1.21758075e+02  7.37432535e+06  4.96e-04 3.42e-03  4.28e-01     0s
  36*  1.21841140e+02  6.96838163e+09  5.41e-07 1.73e-04  4.44e-04     0s
  37*  1.21841249e+02  6.96764157e+12  5.41e-10 7.50e-07  4.44e-07     0s
  38*  1.21841249e+02  6.96764011e+15  5.41e-13 6.59e-07  4.44e-10     0s
  39*  1.21841249e+02  6.96764004e+18  5.41e-16 6.04e-07  4.44e-13     0s
  40*  1.21841249e+02  6.96764003e+21  5.41e-19 3.07e-07  4.44e-16     0s

Barrier performed 40 iterations in 0.01 seconds (0.01 work units)
Infeasible model

